p cnf 133 486
-9 -33 0
-10 -33 0
9 10 33 0
9 10 -34 0
-9 -10 -34 0
-9 10 34 0
9 -10 34 0
33 -35 0
-11 -35 0
11 -33 35 0
11 -33 -36 0
-11 33 -36 0
11 33 36 0
-11 -33 36 0
35 -37 0
-12 -37 0
12 -35 37 0
12 -35 -38 0
-12 35 -38 0
12 35 38 0
-12 -35 38 0
37 -39 0
-13 -39 0
13 -37 39 0
13 -37 -40 0
-13 37 -40 0
13 37 40 0
-13 -37 40 0
39 -41 0
-14 -41 0
14 -39 41 0
14 -39 -42 0
-14 39 -42 0
14 39 42 0
-14 -39 42 0
41 -43 0
-15 -43 0
15 -41 43 0
15 -41 -44 0
-15 41 -44 0
15 41 44 0
-15 -41 44 0
43 -45 0
-16 -45 0
16 -43 45 0
16 -43 -46 0
-16 43 -46 0
16 43 46 0
-16 -43 46 0
10 -47 0
9 -47 0
-9 -10 47 0
-9 -10 -48 0
9 10 -48 0
9 -10 48 0
-9 10 48 0
-10 -11 49 0
-11 -47 49 0
-10 -47 49 0
10 11 -49 0
11 47 -49 0
10 47 -49 0
11 -49 -50 0
10 -49 -50 0
47 -49 -50 0
-11 49 50 0
-10 49 50 0
-47 49 50 0
-10 -11 -47 50 0
10 11 47 -50 0
-11 -12 51 0
-12 -49 51 0
-11 -49 51 0
11 12 -51 0
12 49 -51 0
11 49 -51 0
12 -51 -52 0
11 -51 -52 0
49 -51 -52 0
-12 51 52 0
-11 51 52 0
-49 51 52 0
-11 -12 -49 52 0
11 12 49 -52 0
-12 -13 53 0
-13 -51 53 0
-12 -51 53 0
12 13 -53 0
13 51 -53 0
12 51 -53 0
13 -53 -54 0
12 -53 -54 0
51 -53 -54 0
-13 53 54 0
-12 53 54 0
-51 53 54 0
-12 -13 -51 54 0
12 13 51 -54 0
-13 -14 55 0
-14 -53 55 0
-13 -53 55 0
13 14 -55 0
14 53 -55 0
13 53 -55 0
14 -55 -56 0
13 -55 -56 0
53 -55 -56 0
-14 55 56 0
-13 55 56 0
-53 55 56 0
-13 -14 -53 56 0
13 14 53 -56 0
-14 -15 57 0
-15 -55 57 0
-14 -55 57 0
14 15 -57 0
15 55 -57 0
14 55 -57 0
15 -57 -58 0
14 -57 -58 0
55 -57 -58 0
-15 57 58 0
-14 57 58 0
-55 57 58 0
-14 -15 -55 58 0
14 15 55 -58 0
-15 -16 59 0
-16 -57 59 0
-15 -57 59 0
15 16 -59 0
16 57 -59 0
15 57 -59 0
16 -59 -60 0
15 -59 -60 0
57 -59 -60 0
-16 59 60 0
-15 59 60 0
-57 59 60 0
-15 -16 -57 60 0
15 16 57 -60 0
16 -61 0
59 -61 0
-16 -59 61 0
-16 -59 -62 0
16 59 -62 0
-16 59 62 0
16 -59 62 0
56 -63 0
9 -63 0
-9 -56 63 0
-9 -56 -64 0
9 56 -64 0
9 -56 64 0
-9 56 64 0
-10 -58 65 0
-58 -63 65 0
-10 -63 65 0
10 58 -65 0
58 63 -65 0
10 63 -65 0
58 -65 -66 0
10 -65 -66 0
63 -65 -66 0
-58 65 66 0
-10 65 66 0
-63 65 66 0
-10 -58 -63 66 0
10 58 63 -66 0
-11 -60 67 0
-60 -65 67 0
-11 -65 67 0
11 60 -67 0
60 65 -67 0
11 65 -67 0
60 -67 -68 0
11 -67 -68 0
65 -67 -68 0
-60 67 68 0
-11 67 68 0
-65 67 68 0
-11 -60 -65 68 0
11 60 65 -68 0
-12 -62 69 0
-62 -67 69 0
-12 -67 69 0
12 62 -69 0
62 67 -69 0
12 67 -69 0
62 -69 -70 0
12 -69 -70 0
67 -69 -70 0
-62 69 70 0
-12 69 70 0
-67 69 70 0
-12 -62 -67 70 0
12 62 67 -70 0
-13 -61 71 0
-61 -69 71 0
-13 -69 71 0
13 61 -71 0
61 69 -71 0
13 69 -71 0
61 -71 -72 0
13 -71 -72 0
69 -71 -72 0
-61 71 72 0
-13 71 72 0
-69 71 72 0
-13 -61 -69 72 0
13 61 69 -72 0
14 -73 0
71 -73 0
-14 -71 73 0
-14 -71 -74 0
14 71 -74 0
-14 71 74 0
14 -71 74 0
15 -75 0
73 -75 0
-15 -73 75 0
-15 -73 -76 0
15 73 -76 0
-15 73 76 0
15 -73 76 0
16 -77 0
75 -77 0
-16 -75 77 0
-16 -75 -78 0
16 75 -78 0
-16 75 78 0
16 -75 78 0
-9 -79 0
-48 -79 0
9 48 79 0
9 48 -80 0
-9 -48 -80 0
-9 48 80 0
9 -48 80 0
79 -81 0
-50 -81 0
50 -79 81 0
50 -79 -82 0
-50 79 -82 0
50 79 82 0
-50 -79 82 0
81 -83 0
-52 -83 0
52 -81 83 0
52 -81 -84 0
-52 81 -84 0
52 81 84 0
-52 -81 84 0
83 -85 0
-54 -85 0
54 -83 85 0
54 -83 -86 0
-54 83 -86 0
54 83 86 0
-54 -83 86 0
85 -87 0
-64 -87 0
64 -85 87 0
64 -85 -88 0
-64 85 -88 0
64 85 88 0
-64 -85 88 0
87 -89 0
-66 -89 0
66 -87 89 0
66 -87 -90 0
-66 87 -90 0
66 87 90 0
-66 -87 90 0
89 -91 0
-68 -91 0
68 -89 91 0
68 -89 -92 0
-68 89 -92 0
68 89 92 0
-68 -89 92 0
91 -93 0
-70 -93 0
70 -91 93 0
70 -91 -94 0
-70 91 -94 0
70 91 94 0
-70 -91 94 0
93 -95 0
-72 -95 0
72 -93 95 0
72 -93 -96 0
-72 93 -96 0
72 93 96 0
-72 -93 96 0
95 -97 0
-74 -97 0
74 -95 97 0
74 -95 -98 0
-74 95 -98 0
74 95 98 0
-74 -95 98 0
97 -99 0
-76 -99 0
76 -97 99 0
76 -97 -100 0
-76 97 -100 0
76 97 100 0
-76 -97 100 0
99 -101 0
-78 -101 0
78 -99 101 0
78 -99 -102 0
-78 99 -102 0
78 99 102 0
-78 -99 102 0
101 -103 0
-77 -103 0
77 -101 103 0
77 -101 -104 0
-77 101 -104 0
77 101 104 0
-77 -101 104 0
1 -105 0
9 -105 0
-1 -9 105 0
-1 -9 -106 0
1 9 -106 0
-1 9 106 0
1 -9 106 0
-2 -48 107 0
-2 -105 107 0
-48 -105 107 0
2 48 -107 0
2 105 -107 0
48 105 -107 0
2 -107 -108 0
48 -107 -108 0
105 -107 -108 0
-2 107 108 0
-48 107 108 0
-105 107 108 0
-2 -48 -105 108 0
2 48 105 -108 0
-3 -50 109 0
-3 -107 109 0
-50 -107 109 0
3 50 -109 0
3 107 -109 0
50 107 -109 0
3 -109 -110 0
50 -109 -110 0
107 -109 -110 0
-3 109 110 0
-50 109 110 0
-107 109 110 0
-3 -50 -107 110 0
3 50 107 -110 0
-4 -52 111 0
-4 -109 111 0
-52 -109 111 0
4 52 -111 0
4 109 -111 0
52 109 -111 0
4 -111 -112 0
52 -111 -112 0
109 -111 -112 0
-4 111 112 0
-52 111 112 0
-109 111 112 0
-4 -52 -109 112 0
4 52 109 -112 0
-5 -54 113 0
-5 -111 113 0
-54 -111 113 0
5 54 -113 0
5 111 -113 0
54 111 -113 0
5 -113 -114 0
54 -113 -114 0
111 -113 -114 0
-5 113 114 0
-54 113 114 0
-111 113 114 0
-5 -54 -111 114 0
5 54 111 -114 0
-6 -64 115 0
-6 -113 115 0
-64 -113 115 0
6 64 -115 0
6 113 -115 0
64 113 -115 0
6 -115 -116 0
64 -115 -116 0
113 -115 -116 0
-6 115 116 0
-64 115 116 0
-113 115 116 0
-6 -64 -113 116 0
6 64 113 -116 0
-7 -66 117 0
-7 -115 117 0
-66 -115 117 0
7 66 -117 0
7 115 -117 0
66 115 -117 0
7 -117 -118 0
66 -117 -118 0
115 -117 -118 0
-7 117 118 0
-66 117 118 0
-115 117 118 0
-7 -66 -115 118 0
7 66 115 -118 0
-8 -68 119 0
-8 -117 119 0
-68 -117 119 0
8 68 -119 0
8 117 -119 0
68 117 -119 0
8 -119 -120 0
68 -119 -120 0
117 -119 -120 0
-8 119 120 0
-68 119 120 0
-117 119 120 0
-8 -68 -117 120 0
8 68 117 -120 0
70 -121 0
119 -121 0
-70 -119 121 0
-70 -119 -122 0
70 119 -122 0
-70 119 122 0
70 -119 122 0
72 -123 0
121 -123 0
-72 -121 123 0
-72 -121 -124 0
72 121 -124 0
-72 121 124 0
72 -121 124 0
74 -125 0
123 -125 0
-74 -123 125 0
-74 -123 -126 0
74 123 -126 0
-74 123 126 0
74 -123 126 0
76 -127 0
125 -127 0
-76 -125 127 0
-76 -125 -128 0
76 125 -128 0
-76 125 128 0
76 -125 128 0
78 -129 0
127 -129 0
-78 -127 129 0
-78 -127 -130 0
78 127 -130 0
-78 127 130 0
78 -127 130 0
77 -131 0
129 -131 0
-77 -129 131 0
-77 -129 -132 0
77 129 -132 0
-77 129 132 0
77 -129 132 0
106 -133 0
-108 -133 0
-110 -133 0
-112 -133 0
-114 -133 0
-116 -133 0
-118 -133 0
120 -133 0
-122 -133 0
-124 -133 0
-126 -133 0
-128 -133 0
-130 -133 0
-131 -133 0
-132 -133 0
-106 108 110 112 114 116 118 -120 122 124 126 128 130 131 132 133 0
133 0
c main::$tmp::return_value_nondet_char!0@1#1 17 18 19 20 21 22 23 24
c symex::nondet1 9 10 11 12 13 14 15 16
c symex::nondet0 1 2 3 4 5 6 7 8
c main::$tmp::return_value_nondet_char$0!0@1#2 9 10 11 12 13 14 15 16
c __CPROVER_rounding_mode!0#1 FALSE FALSE FALSE FALSE FALSE FALSE FALSE FALSE FALSE FALSE FALSE FALSE FALSE FALSE FALSE FALSE FALSE FALSE FALSE FALSE FALSE FALSE FALSE FALSE FALSE FALSE FALSE FALSE FALSE FALSE FALSE FALSE
c main::$tmp::return_value_nondet_char$0!0@1#1 25 26 27 28 29 30 31 32
c __CPROVER_memory_leak#1 FALSE FALSE FALSE FALSE FALSE FALSE FALSE FALSE FALSE FALSE FALSE FALSE FALSE FALSE FALSE FALSE FALSE FALSE FALSE FALSE FALSE FALSE FALSE FALSE FALSE FALSE FALSE FALSE FALSE FALSE FALSE FALSE FALSE FALSE FALSE FALSE FALSE FALSE FALSE FALSE FALSE FALSE FALSE FALSE FALSE FALSE FALSE FALSE FALSE FALSE FALSE FALSE FALSE FALSE FALSE FALSE FALSE FALSE FALSE FALSE FALSE FALSE FALSE FALSE
c __CPROVER_max_malloc_size#1 FALSE FALSE FALSE FALSE FALSE FALSE FALSE FALSE FALSE FALSE FALSE FALSE FALSE FALSE FALSE FALSE FALSE FALSE FALSE FALSE FALSE FALSE FALSE FALSE FALSE FALSE FALSE FALSE FALSE FALSE FALSE FALSE FALSE FALSE FALSE FALSE FALSE FALSE FALSE FALSE FALSE FALSE FALSE FALSE FALSE FALSE FALSE FALSE FALSE FALSE FALSE FALSE FALSE FALSE FALSE TRUE FALSE FALSE FALSE FALSE FALSE FALSE FALSE FALSE
c __CPROVER_deallocated#1 FALSE FALSE FALSE FALSE FALSE FALSE FALSE FALSE FALSE FALSE FALSE FALSE FALSE FALSE FALSE FALSE FALSE FALSE FALSE FALSE FALSE FALSE FALSE FALSE FALSE FALSE FALSE FALSE FALSE FALSE FALSE FALSE FALSE FALSE FALSE FALSE FALSE FALSE FALSE FALSE FALSE FALSE FALSE FALSE FALSE FALSE FALSE FALSE FALSE FALSE FALSE FALSE FALSE FALSE FALSE FALSE FALSE FALSE FALSE FALSE FALSE FALSE FALSE FALSE
c main::$tmp::return_value_nondet_char!0@1#2 1 2 3 4 5 6 7 8
c __CPROVER_dead_object#1 FALSE FALSE FALSE FALSE FALSE FALSE FALSE FALSE FALSE FALSE FALSE FALSE FALSE FALSE FALSE FALSE FALSE FALSE FALSE FALSE FALSE FALSE FALSE FALSE FALSE FALSE FALSE FALSE FALSE FALSE FALSE FALSE FALSE FALSE FALSE FALSE FALSE FALSE FALSE FALSE FALSE FALSE FALSE FALSE FALSE FALSE FALSE FALSE FALSE FALSE FALSE FALSE FALSE FALSE FALSE FALSE FALSE FALSE FALSE FALSE FALSE FALSE FALSE FALSE
